(set-logic QF_SLIA)
(set-option :produce-models true)
(declare-const X String)
; ^[/]*([^/\\ \:\*\?"\<\>\|\.][^/\\\:\*\?\"\<\>\|]{0,63}/)*[^/\\ \:\*\?"\<\>\|\.][^/\\\:\*\?\"\<\>\|]{0,63}$
(assert (str.in_re X (re.++ (re.* (str.to_re "/")) (re.* (re.++ (re.union (str.to_re "/") (str.to_re "\u{5c}") (str.to_re " ") (str.to_re ":") (str.to_re "*") (str.to_re "?") (str.to_re "\u{22}") (str.to_re "<") (str.to_re ">") (str.to_re "|") (str.to_re ".")) ((_ re.loop 0 63) (re.union (str.to_re "/") (str.to_re "\u{5c}") (str.to_re ":") (str.to_re "*") (str.to_re "?") (str.to_re "\u{22}") (str.to_re "<") (str.to_re ">") (str.to_re "|"))) (str.to_re "/"))) (re.union (str.to_re "/") (str.to_re "\u{5c}") (str.to_re " ") (str.to_re ":") (str.to_re "*") (str.to_re "?") (str.to_re "\u{22}") (str.to_re "<") (str.to_re ">") (str.to_re "|") (str.to_re ".")) ((_ re.loop 0 63) (re.union (str.to_re "/") (str.to_re "\u{5c}") (str.to_re ":") (str.to_re "*") (str.to_re "?") (str.to_re "\u{22}") (str.to_re "<") (str.to_re ">") (str.to_re "|"))) (str.to_re "\u{0a}"))))
; (\d+)?-?(\d+)-(\d+)
(assert (not (str.in_re X (re.++ (re.opt (re.+ (re.range "0" "9"))) (re.opt (str.to_re "-")) (re.+ (re.range "0" "9")) (str.to_re "-") (re.+ (re.range "0" "9")) (str.to_re "\u{0a}")))))
; /\u{2e}cgm([\?\u{5c}\u{2f}]|$)/smiU
(assert (not (str.in_re X (re.++ (str.to_re "/.cgm") (re.union (str.to_re "?") (str.to_re "\u{5c}") (str.to_re "/")) (str.to_re "/smiU\u{0a}")))))
; \.?[a-zA-Z0-9]{1,}$
(assert (not (str.in_re X (re.++ (re.opt (str.to_re ".")) (re.+ (re.union (re.range "a" "z") (re.range "A" "Z") (re.range "0" "9"))) (str.to_re "\u{0a}")))))
; /Content-Disposition\u{3a}\u{20}inline\u{3b}[^\u{0d}\u{0a}]filename=[a-z]{5,8}\d{2,3}\.pdf\u{0d}\u{0a}/Hm
(assert (str.in_re X (re.++ (str.to_re "/Content-Disposition: inline;") (re.union (str.to_re "\u{0d}") (str.to_re "\u{0a}")) (str.to_re "filename=") ((_ re.loop 5 8) (re.range "a" "z")) ((_ re.loop 2 3) (re.range "0" "9")) (str.to_re ".pdf\u{0d}\u{0a}/Hm\u{0a}"))))
(assert (< 200 (str.len X)))
(check-sat)
